m = 3;
n = 7;
capacity = [15, 10, 7];
item_size = [3, 2, 6, 8, 5, 4, 4];
dist_matrix = [|0, 3, 3, 6, 5, 6, 6, 2
             |3, 0, 6, 3, 4, 7, 7, 3
             |3, 4, 0, 7, 6, 3, 5, 3
             |6, 3, 7, 0, 5, 6, 7, 4
             |5, 4, 6, 3, 0, 3, 3, 3
             |6, 7, 3, 6, 3, 0, 2, 4
             |6, 7, 5, 6, 3, 2, 0, 4
             |2, 3, 3, 4, 3, 4, 4, 0
             |];
original_indices = [0, 1, 2];
min_path = 8;
max_path = 35;
n_array = [1, 2, 3, 4, 5, 6, 7, 8];
count_array = [1, 1, 1, 1, 1, 1, 1, 14];
max_packs = 5;
origin = 8;
min_packs = 1;
similars = []